164 198 123 36 182 91 67 37 172 9 62 40 31 51 13 0 152 159 122 133 107 74 65 116 6 46 189 79 28 42 15 130 93 85 49 166 146 60 147 47 33 167 35 142 10 89 32 137 129 81 80 158 11 4 100 76 141 50 174 86 170 44 184 135 151 98 108 177 103 12 193 16 109 134 162 18 171 128 145 121 69 66 112 71 24 136 2 163 132 23 195 59 161 30 99 58 83 139 180 185 125 7 197 82 61 84 104 196 53 54 191 194 25 183 21 178 57 168 111 45 179 186 175 56 110 148 150 63 20 188 199 68 160 19 90 144 29 27 117 190 3 14 115 118 48 140 120 72 52 34 64 131 55 157 124 38 70 155 77 126 73 75 173 87 169 39 143 43 97 96 154 156 105 176 153 127 94 181 92 113 101 8 22 138 1 192 119 165 149 102 78 5 26 88 106 114 95 187 17 41 

